0 8105840
325 7698824
650 7485114
975 7375527
1300 7308902
1625 7266915
1950 7234689
2275 7216164
2600 7193089
2925 7176866
3250 7161617
3575 7153115
3900 7137632
4225 7133115
4550 7128993
4875 7126692
5200 7124729
5525 7120558
5850 7119533
6175 7118740
6500 7118190
6825 7117553
7150 7117253
7475 7116753
7800 7116725
